16344
101001011001011001001000110000
20 0 13 14 14 5 2 25 0 17 5 20 20 20 2 14 14 17 25 11 14 7 11 2 13 8 7 24 25 24 25 25 13 25 20 20 24 5 7 2 0 14 24 8 24 14 7 13 11 8 25 0 14 5 13 8 17 0 11 14 0 5 20 0 11 11 5 0 11 25 13 20 11 0 24 8 24 20 2 24 13 7 13 17 8 17 0 7 20 24 17 5 7 11 7 11 17 7 5 20 20 0 14 25 17 25 17 11 8 8 14 2 0 0 25 14 24 24 5 24 5 8 11 20 8 25 5 5 7 11 0 7 24 2 8 8 7 25 20 17 0 17 13 14 8 25 25 5 2 24 